&CONTROL
  calculation   = "scf"
  prefix        = "25"
  pseudo_dir    = "../pseudo/"
  outdir        = "./"
  verbosity = 'high'
/

&SYSTEM
  ecutwfc     = 80
  ibrav       = 0
  nat         = 16
  smearing    = 'gaussian'
  degauss     = 0.02
  occupations ='smearing'
  ntyp        = 4
	
/

&ELECTRONS
  conv_thr = 1.0d-9
/

ATOMIC_SPECIES
Ag 107.868 Ag.upf
Ga 69.7230 Ga.upf
Se 78.9710 Se.upf
In 114.818 In.upf

CELL_PARAMETERS (angstrom)
    5.873213486  -0.000000000   0.000000000
   0.000000000   5.873213486   0.000000000
   0.000000000   0.000000000  11.187408005

ATOMIC_POSITIONS (crystal)
In            0.0000000000        0.0000000000        0.5000000000
Ga            0.5000000000        0.5000000000        0.0000000000
Ga            0.5000000000       -0.0000000000        0.2436524355
Ga            0.0000000000        0.5000000000        0.7563475645
Ag            0.0000000000        0.0000000000        0.0000000000
Ag            0.5000000000       -0.0000000000        0.7568051632
Ag            0.5000000000        0.5000000000        0.5000000000
Ag            0.0000000000        0.5000000000        0.2431948368
Se            0.2386752899        0.7372066917        0.6346430977
Se            0.7613247101        0.2627933083        0.6346430977
Se            0.7372066917        0.7613247101        0.3653569023
Se            0.2627933083        0.2386752899        0.3653569023
Se            0.2728580033        0.7509547266        0.1215809359
Se            0.7271419967        0.2490452734        0.1215809359
Se            0.2490452734        0.2728580033        0.8784190641
Se            0.7509547266        0.7271419967        0.8784190641

K_POINTS (AUTOMATIC)
4 4 4 0 0 0
