&CONTROL
  calculation   = "scf"
  prefix        = "50s"
  pseudo_dir    = "../pseudo/"
  outdir        = "./"
  verbosity = 'high'
/

&SYSTEM
  ecutwfc     = 80
  ibrav       = 0
  nat         = 16
  smearing    = 'gaussian'
  degauss     = 0.02
  occupations ='smearing'
  ntyp        = 4
	
/

&ELECTRONS
  conv_thr = 1.0d-9
/

ATOMIC_SPECIES
Ag 107.868 Ag.upf
Ga 69.7230 Ga.upf
Se 78.9710 Se.upf
In 114.818 In.upf

CELL_PARAMETERS (angstrom)
   5.917806792   0.000000000   0.000000000
  -0.000000000   5.917806792   0.000000000
   0.000000000   0.000000000  11.324683507

ATOMIC_POSITIONS (crystal)
Ga            0.0000000000        0.0000000000        0.5000000000
Ga            0.5000000000        0.5000000000        0.0000000000
In            0.5000000000        0.0000000000        0.2499997971
In           -0.0000000000        0.5000000000        0.7500002029
Ag            0.0000000000        0.0000000000        0.0000000000
Ag            0.5000000000        0.0000000000        0.7499998070
Ag            0.5000000000        0.5000000000        0.5000000000
Ag           -0.0000000000        0.5000000000        0.2500001930
Se            0.2392482661        0.7637926004        0.6188657583
Se            0.7607517339        0.2362073996        0.6188657583
Se            0.7637926004        0.7607517339        0.3811342417
Se            0.2362073996        0.2392482661        0.3811342417
Se            0.2607512218        0.7362071458        0.1188656372
Se            0.7392487782        0.2637928542        0.1188656372
Se            0.2637928542        0.2607512218        0.8811343628
Se            0.7362071458        0.7392487782        0.8811343628

K_POINTS (AUTOMATIC)
4 4 4 0 0 0
