&CONTROL
  calculation   = "vc-relax"
  prefix        = "50a"
  pseudo_dir    = "../pseudo/"
  outdir        = "./"
  forc_conv_thr = 0.0001
/

&SYSTEM
  ecutwfc     = 80
  ibrav       = 0
  nat         = 16
  smearing    = 'gaussian'
  degauss     = 0.02
  occupations ='smearing'
  ntyp        = 4	
/

&ELECTRONS
  conv_thr = 1.0d-9
/

&IONS
/

&CELL
  cell_dofree = 'all'
/

ATOMIC_SPECIES
Ag 107.868 Ag.upf
Ga 69.7230 Ga.upf
Se 78.9710 Se.upf
In 114.818 In.upf

CELL_PARAMETERS (angstrom)
  5.9846954346	0.0000000000	0.00000000000 
  0.0000000000	5.9846954346	0.00000000000 
  0.0000000000	0.0000000000	11.0976877213 

ATOMIC_POSITIONS (crystal)
In	0.000000000         0.000000000         0.500000000
Ga  0.500000000         0.500000000         0.000000000
In  0.500000000         0.000000000         0.250000000
Ga  0.000000000         0.500000000         0.750000000
Ag  0.000000000         0.000000000         0.000000000
Ag  0.500000000         0.000000000         0.750000000
Ag  0.500000000         0.500000000         0.500000000
Ag  0.000000000         0.500000000         0.250000000
Se  0.218361880         0.750000000         0.625000000
Se  0.781638120         0.250000000         0.625000000
Se  0.750000000         0.781638120         0.375000000
Se  0.250000000         0.218361880         0.375000000
Se  0.281638120         0.750000000         0.125000000
Se  0.718361880         0.250000000         0.125000000
Se  0.250000000         0.281638120         0.875000000
Se  0.750000000         0.718361880         0.875000000

K_POINTS (AUTOMATIC)
8 8 4 0 0 0
