&CONTROL
  calculation   = "scf"
  prefix        = "AgGaInSe2"
  pseudo_dir    = "../pseudo/"
  outdir        = "./"
/

&SYSTEM
  ecutwfc     = 80
  ibrav       = 0
  nat         = 2
  smearing    = 'gaussian'
  degauss     = 0.02
  occupations ='smearing'
  ntyp        = 1
  nbnd        = 10	
/

&ELECTRONS
  conv_thr = 1.0d-9
/

ATOMIC_SPECIES
C 12.0107 C.upf

CELL_PARAMETERS (angstrom)
   2.456887189   0.000000000   0.000000000
  -1.228443594   2.127726693   0.000000000
   0.000000000   0.000000000   2.500000000

ATOMIC_POSITIONS (crystal)
C             0.0000000000        0.0000000000        0.2500000000
C             0.6666666667        0.3333333333        0.2500000000

K_POINTS (AUTOMATIC)
12 12 1 0 0 0
