&CONTROL
  calculation   = "scf"
  prefix        = "Ga"
  pseudo_dir    = "../pseudo/"
  outdir        = "./"
  verbosity = 'high'
/

&SYSTEM
  ecutwfc     = 80
  ibrav       = 0
  nat         = 16
  smearing    = 'gaussian'
  degauss     = 0.02
  occupations ='smearing'
  ntyp        = 3
	
/

&ELECTRONS
  conv_thr = 1.0d-9
/

ATOMIC_SPECIES
Ag 107.868 Ag.upf
Ga 69.7230 Ga.upf
Se 78.9710 Se.upf

CELL_PARAMETERS (angstrom)
   5.837001041   0.000000000   0.000000000
   0.000000000   5.837001041   0.000000000 
   0.000000000   0.000000000   11.01256013

ATOMIC_POSITIONS (crystal)
Ga            0.0000000000        0.0000000000        0.5000000000
Ga            0.5000000000        0.0000000000        0.2499994732
Ga            0.5000000000        0.5000000000        0.0000000000
Ga            0.0000000000        0.5000000000        0.7500005268
Ag            0.0000000000        0.0000000000        0.0000000000
Ag            0.5000000000        0.0000000000        0.7500001434
Ag            0.5000000000        0.5000000000        0.5000000000
Ag            0.0000000000        0.5000000000        0.2499998566
Se            0.2265164859        0.7499997419        0.6250000134
Se            0.7734835141        0.2500002581        0.6250000134                                                                                                                                                                  
Se            0.7499997419        0.7734835141        0.3749999866                                                                                                                                                                  
Se            0.2500002581        0.2265164859        0.3749999866                                                                                                                                                                  
Se            0.2734830777        0.7499997936        0.1249999294                                                                                                                                                                  
Se            0.7265169223        0.2500002064        0.1249999294                                                                                                                                                                  
Se            0.2500002064        0.2734830777        0.8750000706                                                                                                                                                                  
Se            0.7499997936        0.7265169223        0.8750000706

K_POINTS (AUTOMATIC)
4 4 4 0 0 0
