&CONTROL
  calculation   = "scf"
  prefix        = "In"
  pseudo_dir    = "../pseudo/"
  outdir        = "./"
  verbosity = 'high'
/

&SYSTEM
  ecutwfc     = 80
  ibrav       = 0
  nat         = 16
  smearing    = 'gaussian'
  degauss     = 0.02
  occupations ='smearing'
  ntyp        = 3
	
/

&ELECTRONS
  conv_thr = 1.0d-9
/

ATOMIC_SPECIES
Ag 107.868 Ag.upf
Se 78.9710 Se.upf
In 114.818 In.upf

CELL_PARAMETERS (angstrom)
   5.982527984  -0.000000000   0.000000000
   0.000000000   5.982527984   0.000000000
   0.000000000   0.000000000  11.765539869

ATOMIC_POSITIONS (crystal)
In            0.0000000000        0.0000000000        0.5000000000
In            0.5000000000       -0.0000000000        0.2499996726
In            0.5000000000        0.5000000000        0.0000000000
In            0.0000000000        0.5000000000        0.7500003274
Ag            0.0000000000        0.0000000000        0.0000000000
Ag            0.5000000000       -0.0000000000        0.7500004419
Ag            0.5000000000        0.5000000000        0.5000000000
Ag            0.0000000000        0.5000000000        0.2499995581
Se            0.2521711082        0.7500003975        0.6250000169
Se            0.7478288918        0.2499996025        0.6250000169
Se            0.7500003975        0.7478288918        0.3749999831
Se            0.2499996025        0.2521711082        0.3749999831
Se            0.2478275566        0.7500000413        0.1250002417                                                                                                                                                                  
Se            0.7521724434        0.2499999587        0.1250002417                                                                                                                                                                  
Se            0.2499999587        0.2478275566        0.8749997583                                                                                                                                                                  
Se            0.7500000413        0.7521724434        0.8749997583

K_POINTS (AUTOMATIC)
4 4 4 0 0 0
