&CONTROL
  calculation   = "vc-relax"
  prefix        = "In"
  pseudo_dir    = "../pseudo/"
  outdir        = "./"
  forc_conv_thr = 0.0001
/

&SYSTEM
  ecutwfc     = 80
  ibrav       = 0
  nat         = 16
  smearing    = 'gaussian'
  degauss     = 0.02
  occupations ='smearing'
  ntyp        = 3	
/

&ELECTRONS
  conv_thr = 1.0d-9
/

&IONS
/

&CELL
  cell_dofree = 'all'
/

ATOMIC_SPECIES
Ag 107.868 Ag.upf
In 114.818 In.upf
Se 78.9710 Se.upf

CELL_PARAMETERS (angstrom)
  6.1357164383         0.0000000000         0.0000000000
  0.0000000000         6.1357164383         0.0000000000
  0.0000000000         0.0000000000        11.9252128601
 

ATOMIC_POSITIONS (crystal)
In	0.000000000         0.000000000         0.500000000
In  0.500000000         0.000000000         0.250000000
In  0.500000000         0.500000000         0.000000000
In  0.000000000         0.500000000         0.750000000
Ag  0.000000000         0.000000000         0.000000000
Ag  0.500000000         0.000000000         0.750000000
Ag  0.500000000         0.500000000         0.500000000
Ag  0.000000000         0.500000000         0.250000000
Se  0.243852220         0.750000000         0.625000000
Se  0.756147780         0.250000000         0.625000000
Se  0.750000000         0.756147780         0.375000000
Se  0.250000000         0.243852220         0.375000000
Se  0.256147780         0.750000000         0.125000000
Se  0.743852220         0.250000000         0.125000000
Se  0.250000000         0.256147780         0.875000000
Se  0.750000000         0.743852220         0.875000000

K_POINTS (AUTOMATIC)
8 8 4 0 0 0
